;; Preprocessed for Astral solver
(set-info :status sat)
;; variables
(declare-const x0 Loc)
(declare-const x1 Loc)
(declare-const x2 Loc)
(declare-const x3 Loc)
(declare-const x4 Loc)
(declare-const x5 Loc)
(declare-const x6 Loc)
(declare-const x7 Loc)
(declare-const x8 Loc)
(declare-const x9 Loc)
(declare-const x10 Loc)
(declare-const x11 Loc)
(declare-const x12 Loc)
(declare-const x13 Loc)
(declare-const x14 Loc)
(declare-const x15 Loc)

(assert 
		(sep 
			(= nil nil)
			(distinct x6 x9)
			(distinct x1 x2)
			(distinct x4 x6)
			(distinct x4 x5)
			(distinct x3 x5)
			(distinct x7 x11)
			(distinct x5 x9)
		(sep 
			(ls x5 x7 )
			(ls x10 x9 )
			(ls x10 x4 )
			(ls x10 x6 )
			(ls x1 x10 )
			(ls x1 x6 )
			(ls x4 x9 )
			(ls x8 x7 )
			(ls x8 x3 )
			(ls x8 x4 )
			(ls x2 x3 )
			(ls x9 x3 )
			(ls x9 x8 )
		)

		)

)

(check-sat)
